webassembly/ejemplos_dzn/9/folder9_json_31.dzn
TERM = { '.', 's(2)', 'in_1', 'local_0', 'in_6', 'in_2', 'in_4', 'in_3', 'in_8', 's(1)', 's(0)', 'in_7', 'in_5', 'in_0'};
null = '.';
s = 9;
n = 14;
ndeps = 4;
max_registers_sz = 3;
NR = 0;
registers = [| |];
dependencies = [|'i32.store8_0', 'i32.load8_s_2', |'i32.load8_s_2', 'i32.store_4', |'i32.store_4', 'i32.store_6', |'i32.store_6', 'i32.store_7'|];
GET_ENUM = { GET1, GET2, GET3};
SET_ENUM = { SET1, SET2, SET3};
TEE_ENUM = { TEE1, TEE2, TEE3};
N = 8;
OP = { 'i32.store8_0', 'i32.load8_s_2', 'i32.sub_0', 'i32.store_4', 'i32.add_0', 'i32.store_6', 'i32.store_7', 'local.get_0' };
in_ops = [2, 1, 2, 2, 2, 2, 2, 0 ];
out_ops = [0, 1, 1, 0, 1, 0, 0, 1 ];
in1 = ['in_0', 'local_0', 's(0)', 's(1)', 'in_4', 's(2)', 'in_7', '.' ];
in2 = ['in_1', '.', 'in_2', 'in_3', 'in_5', 'in_6', 'in_8', '.' ];
in3 = ['.', '.', '.', '.', '.', '.', '.', '.' ];
out1 = ['.', 's(0)', 's(1)', '.', 's(2)', '.', '.', 'local_0' ];
out2 = ['.', '.', '.', '.', '.', '.', '.', '.' ];
out3 = ['.', '.', '.', '.', '.', '.', '.', '.' ];
comm = [false, false, false, false, true, false, false, false ];
gas = [1, 1, 1, 1, 1, 1, 1, 1 ];
sz = [1, 1, 1, 1, 1, 1, 1, 1 ];
stor = [true, false, false, true, false, true, true, false ];
lb = [ 1, 1, 1, 1, 1, 1, 1, 1 ];
ub = [ 9, 9, 9, 9, 9, 9, 9, 9 ];
startstack = [ 'in_0', 'in_1', 'in_2', 'in_3', 'in_4', 'in_5', 'in_6', 'in_7', 'in_8', null, null, null, null, null ];
endstack = [ 'local_0', null, null, null, null, null, null, null, null, null, null, null, null, null ];
